p td 32 96
6 4
7 3
7 4
9 8
10 4
10 5
11 6
11 10
11 2
11 4
12 7
12 1
13 1
14 10
14 1
14 5
15 4
15 5
15 3
17 7
17 3
17 8
17 2
18 12
18 13
18 14
19 9
19 12
19 5
20 14
20 2
20 15
21 7
21 14
21 1
21 11
21 5
21 3
22 18
22 15
22 2
23 10
23 13
23 6
23 17
24 15
24 23
24 14
25 20
25 4
25 12
25 22
25 2
25 15
26 17
26 12
26 16
26 24
26 19
27 16
27 18
27 5
27 7
27 20
28 8
28 10
28 26
28 17
29 9
29 14
29 13
29 4
29 18
30 12
30 22
30 21
30 2
30 28
31 12
31 15
31 29
31 14
31 6
31 4
31 8
31 10
32 10
32 25
32 1
32 9
32 31
32 20
32 4
32 17
32 19
32 24
